n_res = 4;
rc = [ 0, 0, 0, 0 ];
n_tasks = 30;
d = [ 4, 10, 1, 5, 4, 3, 9, 8, 1, 9, 4, 8, 8, 10, 5, 8, 4, 1, 3, 2, 8, 7, 7, 4, 7, 4, 10, 10, 9, 8 ];
rr = [| 0, 0, 0, 0, 0, 0, 0, 0, 0, 0, 0, 0, 0, 0, 0, 0, 0, 0, 0, 0, 0, 0, 0, 0, 0, 0, 0, 0, 0, 0
      | 0, 0, 0, 0, 0, 0, 0, 0, 0, 0, 0, 0, 0, 0, 0, 0, 0, 0, 0, 0, 0, 0, 0, 0, 0, 0, 0, 0, 0, 0
      | 0, 0, 0, 0, 0, 0, 0, 0, 0, 0, 0, 0, 0, 0, 0, 0, 0, 0, 0, 0, 0, 0, 0, 0, 0, 0, 0, 0, 0, 0
      | 0, 0, 0, 0, 0, 0, 0, 0, 0, 0, 0, 0, 0, 0, 0, 0, 0, 0, 0, 0, 0, 0, 0, 0, 0, 0, 0, 0, 0, 0 |];
suc = [ { 8, 14, 23 },
       { 4, 21, 22 },
       { 5, 11 },
       { 7, 13, 29 },
       { 6, 9 },
       { 8, 19, 21 },
       { 9, 10, 12 },
       { 13 },
       { 20, 28 },
       { 25 },
       { 12, 16 },
       { 17, 20, 23 },
       { 17 },
       { 15, 16, 18 },
       { 17, 24 },
       { 24, 26 },
       { 27 },
       { 22, 27 },
       { 25 },
       { 30 },
       { 23, 25, 29 },
       { 24, 26, 29 },
       { 26 },
       { 30 },
       { 30 },
       { 28 },
       { 28 },
       {  },
       {  },
       {  } ];
